(set-logic QF_LRA)
(declare-fun X0 () Real )
(declare-fun Y0 () Real )
(declare-fun X1 () Real )
(declare-fun Y1 () Real )
(declare-fun X2 () Real )
(declare-fun Y2 () Real )
(declare-fun X3 () Real )
(declare-fun Y3 () Real )
(declare-fun X4 () Real )
(declare-fun Y4 () Real )
(declare-fun X5 () Real )
(declare-fun Y5 () Real )
(declare-fun X6 () Real )
(declare-fun Y6 () Real )
(declare-fun X7 () Real )
(declare-fun Y7 () Real )
(declare-fun X8 () Real )
(declare-fun Y8 () Real )
(declare-fun X9 () Real )
(declare-fun Y9 () Real )
(declare-fun X10 () Real )
(declare-fun Y10 () Real )
(declare-fun X11 () Real )
(declare-fun Y11 () Real )
(declare-fun Z () Real )
(declare-fun k () Real )
(assert (let
(( $goal (>= Z k) ))
(let
((
$phi ( and 
( or ( <= ( + X0 1 ) X1 )  ( <= ( + X1 86 ) X0 )  ( <= ( + Y0 18 ) Y1 )  ( <= ( + Y1 89 ) Y0 )  )
( or ( <= ( + X0 1 ) X2 )  ( <= ( + X2 9 ) X0 )  ( <= ( + Y0 18 ) Y2 )  ( <= ( + Y2 61 ) Y0 )  )
( or ( <= ( + X0 1 ) X3 )  ( <= ( + X3 98 ) X0 )  ( <= ( + Y0 18 ) Y3 )  ( <= ( + Y3 77 ) Y0 )  )
( or ( <= ( + X0 1 ) X4 )  ( <= ( + X4 5 ) X0 )  ( <= ( + Y0 18 ) Y4 )  ( <= ( + Y4 33 ) Y0 )  )
( or ( <= ( + X0 1 ) X5 )  ( <= ( + X5 81 ) X0 )  ( <= ( + Y0 18 ) Y5 )  ( <= ( + Y5 31 ) Y0 )  )
( or ( <= ( + X0 1 ) X6 )  ( <= ( + X6 70 ) X0 )  ( <= ( + Y0 18 ) Y6 )  ( <= ( + Y6 34 ) Y0 )  )
( or ( <= ( + X0 1 ) X7 )  ( <= ( + X7 19 ) X0 )  ( <= ( + Y0 18 ) Y7 )  ( <= ( + Y7 5 ) Y0 )  )
( or ( <= ( + X0 1 ) X8 )  ( <= ( + X8 81 ) X0 )  ( <= ( + Y0 18 ) Y8 )  ( <= ( + Y8 23 ) Y0 )  )
( or ( <= ( + X0 1 ) X9 )  ( <= ( + X9 66 ) X0 )  ( <= ( + Y0 18 ) Y9 )  ( <= ( + Y9 35 ) Y0 )  )
( or ( <= ( + X0 1 ) X10 )  ( <= ( + X10 60 ) X0 )  ( <= ( + Y0 18 ) Y10 )  ( <= ( + Y10 81 ) Y0 )  )
( or ( <= ( + X0 1 ) X11 )  ( <= ( + X11 3 ) X0 )  ( <= ( + Y0 18 ) Y11 )  ( <= ( + Y11 24 ) Y0 )  )
( or ( <= ( + X1 86 ) X2 )  ( <= ( + X2 9 ) X1 )  ( <= ( + Y1 89 ) Y2 )  ( <= ( + Y2 61 ) Y1 )  )
( or ( <= ( + X1 86 ) X3 )  ( <= ( + X3 98 ) X1 )  ( <= ( + Y1 89 ) Y3 )  ( <= ( + Y3 77 ) Y1 )  )
( or ( <= ( + X1 86 ) X4 )  ( <= ( + X4 5 ) X1 )  ( <= ( + Y1 89 ) Y4 )  ( <= ( + Y4 33 ) Y1 )  )
( or ( <= ( + X1 86 ) X5 )  ( <= ( + X5 81 ) X1 )  ( <= ( + Y1 89 ) Y5 )  ( <= ( + Y5 31 ) Y1 )  )
( or ( <= ( + X1 86 ) X6 )  ( <= ( + X6 70 ) X1 )  ( <= ( + Y1 89 ) Y6 )  ( <= ( + Y6 34 ) Y1 )  )
( or ( <= ( + X1 86 ) X7 )  ( <= ( + X7 19 ) X1 )  ( <= ( + Y1 89 ) Y7 )  ( <= ( + Y7 5 ) Y1 )  )
( or ( <= ( + X1 86 ) X8 )  ( <= ( + X8 81 ) X1 )  ( <= ( + Y1 89 ) Y8 )  ( <= ( + Y8 23 ) Y1 )  )
( or ( <= ( + X1 86 ) X9 )  ( <= ( + X9 66 ) X1 )  ( <= ( + Y1 89 ) Y9 )  ( <= ( + Y9 35 ) Y1 )  )
( or ( <= ( + X1 86 ) X10 )  ( <= ( + X10 60 ) X1 )  ( <= ( + Y1 89 ) Y10 )  ( <= ( + Y10 81 ) Y1 )  )
( or ( <= ( + X1 86 ) X11 )  ( <= ( + X11 3 ) X1 )  ( <= ( + Y1 89 ) Y11 )  ( <= ( + Y11 24 ) Y1 )  )
( or ( <= ( + X2 9 ) X3 )  ( <= ( + X3 98 ) X2 )  ( <= ( + Y2 61 ) Y3 )  ( <= ( + Y3 77 ) Y2 )  )
( or ( <= ( + X2 9 ) X4 )  ( <= ( + X4 5 ) X2 )  ( <= ( + Y2 61 ) Y4 )  ( <= ( + Y4 33 ) Y2 )  )
( or ( <= ( + X2 9 ) X5 )  ( <= ( + X5 81 ) X2 )  ( <= ( + Y2 61 ) Y5 )  ( <= ( + Y5 31 ) Y2 )  )
( or ( <= ( + X2 9 ) X6 )  ( <= ( + X6 70 ) X2 )  ( <= ( + Y2 61 ) Y6 )  ( <= ( + Y6 34 ) Y2 )  )
( or ( <= ( + X2 9 ) X7 )  ( <= ( + X7 19 ) X2 )  ( <= ( + Y2 61 ) Y7 )  ( <= ( + Y7 5 ) Y2 )  )
( or ( <= ( + X2 9 ) X8 )  ( <= ( + X8 81 ) X2 )  ( <= ( + Y2 61 ) Y8 )  ( <= ( + Y8 23 ) Y2 )  )
( or ( <= ( + X2 9 ) X9 )  ( <= ( + X9 66 ) X2 )  ( <= ( + Y2 61 ) Y9 )  ( <= ( + Y9 35 ) Y2 )  )
( or ( <= ( + X2 9 ) X10 )  ( <= ( + X10 60 ) X2 )  ( <= ( + Y2 61 ) Y10 )  ( <= ( + Y10 81 ) Y2 )  )
( or ( <= ( + X2 9 ) X11 )  ( <= ( + X11 3 ) X2 )  ( <= ( + Y2 61 ) Y11 )  ( <= ( + Y11 24 ) Y2 )  )
( or ( <= ( + X3 98 ) X4 )  ( <= ( + X4 5 ) X3 )  ( <= ( + Y3 77 ) Y4 )  ( <= ( + Y4 33 ) Y3 )  )
( or ( <= ( + X3 98 ) X5 )  ( <= ( + X5 81 ) X3 )  ( <= ( + Y3 77 ) Y5 )  ( <= ( + Y5 31 ) Y3 )  )
( or ( <= ( + X3 98 ) X6 )  ( <= ( + X6 70 ) X3 )  ( <= ( + Y3 77 ) Y6 )  ( <= ( + Y6 34 ) Y3 )  )
( or ( <= ( + X3 98 ) X7 )  ( <= ( + X7 19 ) X3 )  ( <= ( + Y3 77 ) Y7 )  ( <= ( + Y7 5 ) Y3 )  )
( or ( <= ( + X3 98 ) X8 )  ( <= ( + X8 81 ) X3 )  ( <= ( + Y3 77 ) Y8 )  ( <= ( + Y8 23 ) Y3 )  )
( or ( <= ( + X3 98 ) X9 )  ( <= ( + X9 66 ) X3 )  ( <= ( + Y3 77 ) Y9 )  ( <= ( + Y9 35 ) Y3 )  )
( or ( <= ( + X3 98 ) X10 )  ( <= ( + X10 60 ) X3 )  ( <= ( + Y3 77 ) Y10 )  ( <= ( + Y10 81 ) Y3 )  )
( or ( <= ( + X3 98 ) X11 )  ( <= ( + X11 3 ) X3 )  ( <= ( + Y3 77 ) Y11 )  ( <= ( + Y11 24 ) Y3 )  )
( or ( <= ( + X4 5 ) X5 )  ( <= ( + X5 81 ) X4 )  ( <= ( + Y4 33 ) Y5 )  ( <= ( + Y5 31 ) Y4 )  )
( or ( <= ( + X4 5 ) X6 )  ( <= ( + X6 70 ) X4 )  ( <= ( + Y4 33 ) Y6 )  ( <= ( + Y6 34 ) Y4 )  )
( or ( <= ( + X4 5 ) X7 )  ( <= ( + X7 19 ) X4 )  ( <= ( + Y4 33 ) Y7 )  ( <= ( + Y7 5 ) Y4 )  )
( or ( <= ( + X4 5 ) X8 )  ( <= ( + X8 81 ) X4 )  ( <= ( + Y4 33 ) Y8 )  ( <= ( + Y8 23 ) Y4 )  )
( or ( <= ( + X4 5 ) X9 )  ( <= ( + X9 66 ) X4 )  ( <= ( + Y4 33 ) Y9 )  ( <= ( + Y9 35 ) Y4 )  )
( or ( <= ( + X4 5 ) X10 )  ( <= ( + X10 60 ) X4 )  ( <= ( + Y4 33 ) Y10 )  ( <= ( + Y10 81 ) Y4 )  )
( or ( <= ( + X4 5 ) X11 )  ( <= ( + X11 3 ) X4 )  ( <= ( + Y4 33 ) Y11 )  ( <= ( + Y11 24 ) Y4 )  )
( or ( <= ( + X5 81 ) X6 )  ( <= ( + X6 70 ) X5 )  ( <= ( + Y5 31 ) Y6 )  ( <= ( + Y6 34 ) Y5 )  )
( or ( <= ( + X5 81 ) X7 )  ( <= ( + X7 19 ) X5 )  ( <= ( + Y5 31 ) Y7 )  ( <= ( + Y7 5 ) Y5 )  )
( or ( <= ( + X5 81 ) X8 )  ( <= ( + X8 81 ) X5 )  ( <= ( + Y5 31 ) Y8 )  ( <= ( + Y8 23 ) Y5 )  )
( or ( <= ( + X5 81 ) X9 )  ( <= ( + X9 66 ) X5 )  ( <= ( + Y5 31 ) Y9 )  ( <= ( + Y9 35 ) Y5 )  )
( or ( <= ( + X5 81 ) X10 )  ( <= ( + X10 60 ) X5 )  ( <= ( + Y5 31 ) Y10 )  ( <= ( + Y10 81 ) Y5 )  )
( or ( <= ( + X5 81 ) X11 )  ( <= ( + X11 3 ) X5 )  ( <= ( + Y5 31 ) Y11 )  ( <= ( + Y11 24 ) Y5 )  )
( or ( <= ( + X6 70 ) X7 )  ( <= ( + X7 19 ) X6 )  ( <= ( + Y6 34 ) Y7 )  ( <= ( + Y7 5 ) Y6 )  )
( or ( <= ( + X6 70 ) X8 )  ( <= ( + X8 81 ) X6 )  ( <= ( + Y6 34 ) Y8 )  ( <= ( + Y8 23 ) Y6 )  )
( or ( <= ( + X6 70 ) X9 )  ( <= ( + X9 66 ) X6 )  ( <= ( + Y6 34 ) Y9 )  ( <= ( + Y9 35 ) Y6 )  )
( or ( <= ( + X6 70 ) X10 )  ( <= ( + X10 60 ) X6 )  ( <= ( + Y6 34 ) Y10 )  ( <= ( + Y10 81 ) Y6 )  )
( or ( <= ( + X6 70 ) X11 )  ( <= ( + X11 3 ) X6 )  ( <= ( + Y6 34 ) Y11 )  ( <= ( + Y11 24 ) Y6 )  )
( or ( <= ( + X7 19 ) X8 )  ( <= ( + X8 81 ) X7 )  ( <= ( + Y7 5 ) Y8 )  ( <= ( + Y8 23 ) Y7 )  )
( or ( <= ( + X7 19 ) X9 )  ( <= ( + X9 66 ) X7 )  ( <= ( + Y7 5 ) Y9 )  ( <= ( + Y9 35 ) Y7 )  )
( or ( <= ( + X7 19 ) X10 )  ( <= ( + X10 60 ) X7 )  ( <= ( + Y7 5 ) Y10 )  ( <= ( + Y10 81 ) Y7 )  )
( or ( <= ( + X7 19 ) X11 )  ( <= ( + X11 3 ) X7 )  ( <= ( + Y7 5 ) Y11 )  ( <= ( + Y11 24 ) Y7 )  )
( or ( <= ( + X8 81 ) X9 )  ( <= ( + X9 66 ) X8 )  ( <= ( + Y8 23 ) Y9 )  ( <= ( + Y9 35 ) Y8 )  )
( or ( <= ( + X8 81 ) X10 )  ( <= ( + X10 60 ) X8 )  ( <= ( + Y8 23 ) Y10 )  ( <= ( + Y10 81 ) Y8 )  )
( or ( <= ( + X8 81 ) X11 )  ( <= ( + X11 3 ) X8 )  ( <= ( + Y8 23 ) Y11 )  ( <= ( + Y11 24 ) Y8 )  )
( or ( <= ( + X9 66 ) X10 )  ( <= ( + X10 60 ) X9 )  ( <= ( + Y9 35 ) Y10 )  ( <= ( + Y10 81 ) Y9 )  )
( or ( <= ( + X9 66 ) X11 )  ( <= ( + X11 3 ) X9 )  ( <= ( + Y9 35 ) Y11 )  ( <= ( + Y11 24 ) Y9 )  )
( or ( <= ( + X10 60 ) X11 )  ( <= ( + X11 3 ) X10 )  ( <= ( + Y10 81 ) Y11 )  ( <= ( + Y11 24 ) Y10 )  )
( >= X0 0)
( <= ( + X0 1) Z)
( >= Y0 0)
( <= ( + Y0 18 ) 173)
( >= X1 0)
( <= ( + X1 86) Z)
( >= Y1 0)
( <= ( + Y1 89 ) 173)
( >= X2 0)
( <= ( + X2 9) Z)
( >= Y2 0)
( <= ( + Y2 61 ) 173)
( >= X3 0)
( <= ( + X3 98) Z)
( >= Y3 0)
( <= ( + Y3 77 ) 173)
( >= X4 0)
( <= ( + X4 5) Z)
( >= Y4 0)
( <= ( + Y4 33 ) 173)
( >= X5 0)
( <= ( + X5 81) Z)
( >= Y5 0)
( <= ( + Y5 31 ) 173)
( >= X6 0)
( <= ( + X6 70) Z)
( >= Y6 0)
( <= ( + Y6 34 ) 173)
( >= X7 0)
( <= ( + X7 19) Z)
( >= Y7 0)
( <= ( + Y7 5 ) 173)
( >= X8 0)
( <= ( + X8 81) Z)
( >= Y8 0)
( <= ( + Y8 23 ) 173)
( >= X9 0)
( <= ( + X9 66) Z)
( >= Y9 0)
( <= ( + Y9 35 ) 173)
( >= X10 0)
( <= ( + X10 60) Z)
( >= Y10 0)
( <= ( + Y10 81 ) 173)
( >= X11 0)
( <= ( + X11 3) Z)
( >= Y11 0)
( <= ( + Y11 24 ) 173)
) )
)(=> $phi $goal))))